10
100 1 100 100 100 100 100 100 100 100
1 100 2 100 100 100 100 100 100 100
100 2 100 4 100 6 100 100 100 100
100 100 4 100 5 100 7 100 100 8
100 100 100 5 100 100 10 100 100 2
100 100 6 100 100 100 2 100 100 2
100 100 100 7 10 2 100 1 100 100
100 100 100 100 100 100 1 100 1 100
100 100 100 100 100 100 100 1 100 1
100 100 100 8 2 2 100 100 1 100
RRRBRBRBBB
